************************************************************************
file with basedata            : md242_.bas
initial value random generator: 1455851252
************************************************************************
projects                      :  1
jobs (incl. supersource/sink ):  18
horizon                       :  139
RESOURCES
  - renewable                 :  2   R
  - nonrenewable              :  2   N
  - doubly constrained        :  0   D
************************************************************************
PROJECT INFORMATION:
pronr.  #jobs rel.date duedate tardcost  MPM-Time
    1     16      0       29        5       29
************************************************************************
PRECEDENCE RELATIONS:
jobnr.    #modes  #successors   successors
   1        1          3           2   3   4
   2        3          3           6  11  13
   3        3          3           7   8  14
   4        3          2           5   9
   5        3          2          10  16
   6        3          3           7   8  14
   7        3          2           9  12
   8        3          3           9  12  16
   9        3          1          17
  10        3          1          11
  11        3          2          12  14
  12        3          2          15  17
  13        3          1          16
  14        3          2          15  17
  15        3          1          18
  16        3          1          18
  17        3          1          18
  18        1          0        
************************************************************************
REQUESTS/DURATIONS:
jobnr. mode duration  R 1  R 2  N 1  N 2
------------------------------------------------------------------------
  1      1     0       0    0    0    0
  2      1     8       0    5    8    7
         2    10       2    0    5    6
         3    10       5    0    3    6
  3      1     4       0   10    8    6
         2     6       4    0    7    2
         3     6       3    0    8    2
  4      1     1       7    0    6    1
         2     1       0    6    8    1
         3     7       0    4    2    1
  5      1     2       0    4    8    6
         2     2       0    8    6    6
         3     7       3    0    2    4
  6      1     6       0    7    5    7
         2     8       0    6    5    6
         3    10       7    0    4    6
  7      1     6       0    5    7    5
         2     9      10    0    4    4
         3    10       8    0    2    3
  8      1     4       8    0    3    9
         2     5       0    4    2    7
         3     8       0    2    2    6
  9      1     1       0    6    9    8
         2     2       1    0    7    8
         3    10       0    4    5    7
 10      1     2       7    0   10    5
         2     4       6    0    6    4
         3     9       6    0    5    2
 11      1     6       0    8    8    8
         2     7       0    5    8    7
         3     8       0    1    7    7
 12      1     4       0    6    3    9
         2     6       0    6    2    7
         3     8       2    0    2    4
 13      1     3       4    0    5    9
         2     7       0   10    4    8
         3    10       0    9    4    8
 14      1     2       0    9    5    9
         2     2       5    0    4    6
         3     7       5    0    3    3
 15      1     1       3    0    8    8
         2     2       0    8    7    6
         3    10       0    6    7    5
 16      1     1       4    0    8    5
         2     3       3    0    4    3
         3     9       0    6    3    2
 17      1     5       6    0    7    7
         2     7       3    0    5    7
         3    10       2    0    2    6
 18      1     0       0    0    0    0
************************************************************************
RESOURCEAVAILABILITIES:
  R 1  R 2  N 1  N 2
   15   15   98  100
************************************************************************
